Rodando pra 1h

Optimize a model with 112 rows, 102 columns and 1230 nonzeros
Coefficient statistics:
  Matrix range    [1e+00, 1e+04]
  Objective range [1e-01, 1e-01]
  Bounds range    [1e+00, 1e+04]
  RHS range       [1e+00, 1e+04]
Presolve removed 1 rows and 1 columns
Presolve time: 0.00s
Presolved: 111 rows, 101 columns, 1164 nonzeros
Variable types: 20 continuous, 81 integer (74 binary)
Found heuristic solution: objective 248.9997510
Found heuristic solution: objective 248.4283230

Root relaxation: objective 8.961030e+00, 64 iterations, 0.00 seconds

    Nodes    |    Current Node    |     Objective Bounds      |     Work
 Expl Unexpl |  Obj  Depth IntInf | Incumbent    BestBd   Gap | It/Node Time

     0     0    8.96103    0   28  248.42832    8.96103  96.4%     -    0s
     0     0   21.01711    0   36  248.42832   21.01711  91.5%     -    0s
H    0     0                     240.2854740   21.01711  91.3%     -    0s
     0     0   21.94047    0   37  240.28547   21.94047  90.9%     -    0s
     0     0   31.62036    0   49  240.28547   31.62036  86.8%     -    0s
     0     0   37.47936    0   46  240.28547   37.47936  84.4%     -    0s
     0     0   42.47170    0   50  240.28547   42.47170  82.3%     -    0s
     0     0   43.57469    0   51  240.28547   43.57469  81.9%     -    0s
     0     0   43.79658    0   51  240.28547   43.79658  81.8%     -    0s
     0     0   44.77749    0   52  240.28547   44.77749  81.4%     -    0s
     0     0   47.75834    0   53  240.28547   47.75834  80.1%     -    0s
H    0     0                     222.9997770   47.75834  78.6%     -    0s
H    0     0                     210.1426470   47.75834  77.3%     -    0s
     0     0   48.73668    0   60  210.14265   48.73668  76.8%     -    0s
     0     0   50.63714    0   66  210.14265   50.63714  75.9%     -    0s
H    0     0                     197.5712310   50.63714  74.4%     -    0s
     0     0   51.18684    0   68  197.57123   51.18684  74.1%     -    0s
     0     0   52.95876    0   67  197.57123   52.95876  73.2%     -    0s
     0     0   53.00628    0   70  197.57123   53.00628  73.2%     -    0s
     0     0   54.01830    0   66  197.57123   54.01830  72.7%     -    0s
     0     0   54.57738    0   66  197.57123   54.57738  72.4%     -    0s
     0     0   54.88900    0   67  197.57123   54.88900  72.2%     -    0s
     0     0   54.99367    0   68  197.57123   54.99367  72.2%     -    0s
     0     0   55.77671    0   66  197.57123   55.77671  71.8%     -    0s
     0     0   55.97351    0   67  197.57123   55.97351  71.7%     -    0s
     0     0   56.34044    0   67  197.57123   56.34044  71.5%     -    0s
     0     0   56.34044    0   66  197.57123   56.34044  71.5%     -    0s
     0     2   56.55436    0   66  197.57123   56.55436  71.4%     -    0s
*   37    27              29     194.4283770   57.05589  70.7%   9.9    0s
H  597   318                     186.7140990   78.55762  57.9%  12.9    1s
* 1293   343              29     182.4283890  102.51959  43.8%  14.6    2s
* 1295   317              28     180.4283910  102.51959  43.2%  14.6    2s
* 1686   347              38     179.2855350  108.82844  39.3%  14.7    2s
* 1690   347              39     178.9998210  108.82844  39.2%  14.7    2s
* 1753   341              34     178.1426790  110.31476  38.1%  14.6    3s
* 3037   414              32     177.5712510  126.77609  28.6%  14.0    4s
* 3039   409              33     177.2855370  126.77609  28.5%  13.9    4s
* 3933   386              35     176.4283950  141.89359  19.6%  13.1    4s
  4287   359  149.57128   25   23  176.42840  147.60173  16.3%  12.8    5s
* 5039   247              38     176.1426810  159.85698  9.25%  11.9    5s
* 5415   142              39     175.8569670  166.99983  5.04%  11.5    5s

Cutting planes:
  Gomory: 8
  MIR: 184
  Flow cover: 163
  Flow path: 5
  Zero half: 2
  Network: 17

Explored 5758 nodes (63795 simplex iterations) in 5.60 seconds
Thread count was 1 (of 4 available processors)

Optimal solution found (tolerance 1.00e-04)
Best objective 1.758569670000e+02, best bound 1.758569670000e+02, gap 0.0%
Tempo: 5.59 segundos

0 1 64 61 47 62 25 72 15 46 
1 2 50 20 46 15 17 63 14 75 
2 3 22 21 23 10 80 43 73 45 
3 4 47 15 87 56 63 9 31 31 
(183 117 203 143 185 187 133 197 )

